p cnf 964 2475
51 -2 -697 0
-51 2 0
-51 697 0
52 -51 -3 0
-52 51 0
-52 3 0
53 -698 -4 0
-53 698 0
-53 4 0
54 -53 -699 0
-54 53 0
-54 699 0
55 -700 -701 0
-55 700 0
-55 701 0
56 -702 -703 0
-56 702 0
-56 703 0
57 -56 -9 0
-57 56 0
-57 9 0
58 -704 -55 0
-58 704 0
-58 55 0
59 -705 -706 0
-59 705 0
-59 706 0
60 -59 -707 0
-60 59 0
-60 707 0
61 -708 -58 0
-61 708 0
-61 58 0
62 -12 -707 0
-62 12 0
-62 707 0
63 -62 -709 0
-63 62 0
-63 709 0
64 -710 -61 0
-64 710 0
-64 61 0
65 -14 -705 0
-65 14 0
-65 705 0
66 -65 -711 0
-66 65 0
-66 711 0
67 -712 -64 0
-67 712 0
-67 64 0
68 -16 -8 0
-68 16 0
-68 8 0
69 -68 -713 0
-69 68 0
-69 713 0
70 -714 -67 0
-70 714 0
-70 67 0
71 -698 -706 0
-71 698 0
-71 706 0
72 -71 -715 0
-72 71 0
-72 715 0
73 -716 -70 0
-73 716 0
-73 70 0
74 -717 -19 0
-74 717 0
-74 19 0
75 -74 -21 0
-75 74 0
-75 21 0
76 -718 -73 0
-76 718 0
-76 73 0
77 -719 -22 0
-77 719 0
-77 22 0
78 -77 -720 0
-78 77 0
-78 720 0
79 -721 -76 0
-79 721 0
-79 76 0
80 -722 -22 0
-80 722 0
-80 22 0
81 -80 -723 0
-81 80 0
-81 723 0
82 -724 -79 0
-82 724 0
-82 79 0
83 -725 -705 0
-83 725 0
-83 705 0
84 -83 -726 0
-84 83 0
-84 726 0
85 -727 -82 0
-85 727 0
-85 82 0
86 -728 -6 0
-86 728 0
-86 6 0
87 -86 -30 0
-87 86 0
-87 30 0
88 -729 -85 0
-88 729 0
-88 85 0
89 -31 -19 0
-89 31 0
-89 19 0
90 -89 -26 0
-90 89 0
-90 26 0
91 -730 -88 0
-91 730 0
-91 88 0
92 -25 -14 0
-92 25 0
-92 14 0
93 -92 -731 0
-93 92 0
-93 731 0
94 -732 -91 0
-94 732 0
-94 91 0
95 -733 -698 0
-95 733 0
-95 698 0
96 -95 -33 0
-96 95 0
-96 33 0
97 -734 -94 0
-97 734 0
-97 94 0
98 -34 -735 0
-98 34 0
-98 735 0
99 -98 -736 0
-99 98 0
-99 736 0
100 -737 -97 0
-100 737 0
-100 97 0
101 -738 -2 0
-101 738 0
-101 2 0
102 -101 -18 0
-102 101 0
-102 18 0
103 -739 -100 0
-103 739 0
-103 100 0
104 -711 -706 0
-104 711 0
-104 706 0
105 -104 -740 0
-105 104 0
-105 740 0
106 -741 -103 0
-106 741 0
-106 103 0
107 -717 -703 0
-107 717 0
-107 703 0
108 -107 -723 0
-108 107 0
-108 723 0
109 -742 -106 0
-109 742 0
-109 106 0
110 -36 -35 0
-110 36 0
-110 35 0
111 -110 -26 0
-111 110 0
-111 26 0
112 -743 -109 0
-112 743 0
-112 109 0
113 -37 -744 0
-113 37 0
-113 744 0
114 -113 -38 0
-114 113 0
-114 38 0
115 -745 -112 0
-115 745 0
-115 112 0
116 -39 -706 0
-116 39 0
-116 706 0
117 -116 -717 0
-117 116 0
-117 717 0
118 -746 -115 0
-118 746 0
-118 115 0
119 -40 -6 0
-119 40 0
-119 6 0
120 -119 -28 0
-120 119 0
-120 28 0
121 -747 -118 0
-121 747 0
-121 118 0
122 -35 -738 0
-122 35 0
-122 738 0
123 -122 -18 0
-123 122 0
-123 18 0
124 -748 -121 0
-124 748 0
-124 121 0
125 -32 -722 0
-125 32 0
-125 722 0
126 -125 -41 0
-126 125 0
-126 41 0
127 -749 -124 0
-127 749 0
-127 124 0
128 -22 -16 0
-128 22 0
-128 16 0
129 -128 -3 0
-129 128 0
-129 3 0
130 -750 -127 0
-130 750 0
-130 127 0
131 -14 -4 0
-131 14 0
-131 4 0
132 -131 -751 0
-132 131 0
-132 751 0
133 -752 -130 0
-133 752 0
-133 130 0
134 -24 -16 0
-134 24 0
-134 16 0
135 -134 -26 0
-135 134 0
-135 26 0
136 -753 -133 0
-136 753 0
-136 133 0
137 -717 -699 0
-137 717 0
-137 699 0
138 -137 -754 0
-138 137 0
-138 754 0
139 -755 -136 0
-139 755 0
-139 136 0
140 -19 -705 0
-140 19 0
-140 705 0
141 -140 -30 0
-141 140 0
-141 30 0
142 -756 -139 0
-142 756 0
-142 139 0
143 -711 -6 0
-143 711 0
-143 6 0
144 -143 -707 0
-144 143 0
-144 707 0
145 -757 -142 0
-145 757 0
-145 142 0
146 -43 -38 0
-146 43 0
-146 38 0
147 -146 -44 0
-147 146 0
-147 44 0
148 -758 -145 0
-148 758 0
-148 145 0
149 -39 -697 0
-149 39 0
-149 697 0
150 -149 -24 0
-150 149 0
-150 24 0
151 -759 -148 0
-151 759 0
-151 148 0
152 -38 -11 0
-152 38 0
-152 11 0
153 -152 -760 0
-153 152 0
-153 760 0
154 -761 -151 0
-154 761 0
-154 151 0
155 -762 -5 0
-155 762 0
-155 5 0
156 -155 -763 0
-156 155 0
-156 763 0
157 -764 -154 0
-157 764 0
-157 154 0
158 -763 -709 0
-158 763 0
-158 709 0
159 -158 -723 0
-159 158 0
-159 723 0
160 -765 -157 0
-160 765 0
-160 157 0
161 -719 -11 0
-161 719 0
-161 11 0
162 -161 -18 0
-162 161 0
-162 18 0
163 -766 -160 0
-163 766 0
-163 160 0
164 -9 -699 0
-164 9 0
-164 699 0
165 -164 -13 0
-165 164 0
-165 13 0
166 -767 -163 0
-166 767 0
-166 163 0
167 -762 -697 0
-167 762 0
-167 697 0
168 -167 -722 0
-168 167 0
-168 722 0
169 -768 -166 0
-169 768 0
-169 166 0
170 -25 -703 0
-170 25 0
-170 703 0
171 -170 -738 0
-171 170 0
-171 738 0
172 -769 -169 0
-172 769 0
-172 169 0
173 -36 -3 0
-173 36 0
-173 3 0
174 -173 -35 0
-174 173 0
-174 35 0
175 -770 -172 0
-175 770 0
-175 172 0
176 -38 -711 0
-176 38 0
-176 711 0
177 -176 -44 0
-177 176 0
-177 44 0
178 -771 -175 0
-178 771 0
-178 175 0
179 -733 -1 0
-179 733 0
-179 1 0
180 -179 -707 0
-180 179 0
-180 707 0
181 -772 -178 0
-181 772 0
-181 178 0
182 -45 -3 0
-182 45 0
-182 3 0
183 -182 -23 0
-183 182 0
-183 23 0
184 -773 -181 0
-184 773 0
-184 181 0
185 -46 -19 0
-185 46 0
-185 19 0
186 -185 -17 0
-186 185 0
-186 17 0
187 -774 -184 0
-187 774 0
-187 184 0
188 -775 -726 0
-188 775 0
-188 726 0
189 -188 -776 0
-189 188 0
-189 776 0
190 -777 -187 0
-190 777 0
-190 187 0
191 -776 -40 0
-191 776 0
-191 40 0
192 -191 -47 0
-192 191 0
-192 47 0
193 -778 -190 0
-193 778 0
-193 190 0
194 -762 -1 0
-194 762 0
-194 1 0
195 -194 -3 0
-195 194 0
-195 3 0
196 -779 -193 0
-196 779 0
-196 193 0
197 -780 -7 0
-197 780 0
-197 7 0
198 -197 -738 0
-198 197 0
-198 738 0
199 -781 -196 0
-199 781 0
-199 196 0
200 -726 -14 0
-200 726 0
-200 14 0
201 -200 -12 0
-201 200 0
-201 12 0
202 -782 -199 0
-202 782 0
-202 199 0
203 -719 -699 0
-203 719 0
-203 699 0
204 -203 -715 0
-204 203 0
-204 715 0
205 -783 -202 0
-205 783 0
-205 202 0
206 -10 -784 0
-206 10 0
-206 784 0
207 -206 -780 0
-207 206 0
-207 780 0
208 -785 -205 0
-208 785 0
-208 205 0
209 -48 -8 0
-209 48 0
-209 8 0
210 -209 -740 0
-210 209 0
-210 740 0
211 -786 -208 0
-211 786 0
-211 208 0
212 -37 -29 0
-212 37 0
-212 29 0
213 -212 -717 0
-213 212 0
-213 717 0
214 -787 -211 0
-214 787 0
-214 211 0
215 -728 -744 0
-215 728 0
-215 744 0
216 -215 -711 0
-216 215 0
-216 711 0
217 -788 -214 0
-217 788 0
-217 214 0
218 -46 -33 0
-218 46 0
-218 33 0
219 -218 -754 0
-219 218 0
-219 754 0
220 -789 -217 0
-220 789 0
-220 217 0
221 -790 -722 0
-221 790 0
-221 722 0
222 -221 -48 0
-222 221 0
-222 48 0
223 -791 -220 0
-223 791 0
-223 220 0
224 -792 -20 0
-224 792 0
-224 20 0
225 -224 -723 0
-225 224 0
-225 723 0
226 -793 -223 0
-226 793 0
-226 223 0
227 -23 -707 0
-227 23 0
-227 707 0
228 -227 -12 0
-228 227 0
-228 12 0
229 -794 -226 0
-229 794 0
-229 226 0
230 -25 -20 0
-230 25 0
-230 20 0
231 -230 -795 0
-231 230 0
-231 795 0
232 -796 -229 0
-232 796 0
-232 229 0
233 -44 -15 0
-233 44 0
-233 15 0
234 -233 -9 0
-234 233 0
-234 9 0
235 -797 -232 0
-235 797 0
-235 232 0
236 -792 -744 0
-236 792 0
-236 744 0
237 -236 -2 0
-237 236 0
-237 2 0
238 -798 -235 0
-238 798 0
-238 235 0
239 -56 -760 0
-239 56 0
-239 760 0
240 -799 -238 0
-240 799 0
-240 238 0
241 -15 -8 0
-241 15 0
-241 8 0
242 -241 -709 0
-242 241 0
-242 709 0
243 -800 -240 0
-243 800 0
-243 240 0
244 -32 -14 0
-244 32 0
-244 14 0
245 -244 -801 0
-245 244 0
-245 801 0
246 -802 -243 0
-246 802 0
-246 243 0
247 -719 -1 0
-247 719 0
-247 1 0
248 -247 -776 0
-248 247 0
-248 776 0
249 -803 -246 0
-249 803 0
-249 246 0
250 -780 -703 0
-250 780 0
-250 703 0
251 -250 -723 0
-251 250 0
-251 723 0
252 -804 -249 0
-252 804 0
-252 249 0
253 -43 -744 0
-253 43 0
-253 744 0
254 -253 -715 0
-254 253 0
-254 715 0
255 -805 -252 0
-255 805 0
-255 252 0
256 -49 -760 0
-256 49 0
-256 760 0
257 -256 -47 0
-257 256 0
-257 47 0
258 -806 -255 0
-258 806 0
-258 255 0
259 -40 -726 0
-259 40 0
-259 726 0
260 -259 -19 0
-260 259 0
-260 19 0
261 -807 -258 0
-261 807 0
-261 258 0
262 -45 -27 0
-262 45 0
-262 27 0
263 -262 -711 0
-263 262 0
-263 711 0
264 -808 -261 0
-264 808 0
-264 261 0
265 -43 -697 0
-265 43 0
-265 697 0
266 -265 -36 0
-266 265 0
-266 36 0
267 -809 -264 0
-267 809 0
-267 264 0
268 -810 -723 0
-268 810 0
-268 723 0
269 -268 -41 0
-269 268 0
-269 41 0
270 -811 -267 0
-270 811 0
-270 267 0
271 -812 -702 0
-271 812 0
-271 702 0
272 -271 -813 0
-272 271 0
-272 813 0
273 -814 -270 0
-273 814 0
-273 270 0
274 -754 -706 0
-274 754 0
-274 706 0
275 -274 -26 0
-275 274 0
-275 26 0
276 -815 -273 0
-276 815 0
-276 273 0
277 -27 -719 0
-277 27 0
-277 719 0
278 -277 -713 0
-278 277 0
-278 713 0
279 -816 -276 0
-279 816 0
-279 276 0
280 -762 -719 0
-280 762 0
-280 719 0
281 -280 -776 0
-281 280 0
-281 776 0
282 -817 -279 0
-282 817 0
-282 279 0
283 -22 -2 0
-283 22 0
-283 2 0
284 -283 -713 0
-284 283 0
-284 713 0
285 -818 -282 0
-285 818 0
-285 282 0
286 -702 -3 0
-286 702 0
-286 3 0
287 -286 -760 0
-287 286 0
-287 760 0
288 -819 -285 0
-288 819 0
-288 285 0
289 -39 -25 0
-289 39 0
-289 25 0
290 -289 -9 0
-290 289 0
-290 9 0
291 -820 -288 0
-291 820 0
-291 288 0
292 -790 -34 0
-292 790 0
-292 34 0
293 -292 -11 0
-293 292 0
-293 11 0
294 -821 -291 0
-294 821 0
-294 291 0
295 -736 -717 0
-295 736 0
-295 717 0
296 -295 -720 0
-296 295 0
-296 720 0
297 -822 -294 0
-297 822 0
-297 294 0
298 -775 -16 0
-298 775 0
-298 16 0
299 -298 -810 0
-299 298 0
-299 810 0
300 -823 -297 0
-300 823 0
-300 297 0
301 -801 -728 0
-301 801 0
-301 728 0
302 -301 -3 0
-302 301 0
-302 3 0
303 -824 -300 0
-303 824 0
-303 300 0
304 -43 -726 0
-304 43 0
-304 726 0
305 -304 -44 0
-305 304 0
-305 44 0
306 -825 -303 0
-306 825 0
-306 303 0
307 -16 -699 0
-307 16 0
-307 699 0
308 -307 -30 0
-308 307 0
-308 30 0
309 -826 -306 0
-309 826 0
-309 306 0
310 -776 -697 0
-310 776 0
-310 697 0
311 -310 -17 0
-311 310 0
-311 17 0
312 -827 -309 0
-312 827 0
-312 309 0
313 -828 -40 0
-313 828 0
-313 40 0
314 -313 -30 0
-314 313 0
-314 30 0
315 -829 -312 0
-315 829 0
-315 312 0
316 -48 -830 0
-316 48 0
-316 830 0
317 -316 -26 0
-317 316 0
-317 26 0
318 -831 -315 0
-318 831 0
-318 315 0
319 -744 -14 0
-319 744 0
-319 14 0
320 -319 -40 0
-320 319 0
-320 40 0
321 -832 -318 0
-321 832 0
-321 318 0
322 -32 -751 0
-322 32 0
-322 751 0
323 -322 -3 0
-323 322 0
-323 3 0
324 -833 -321 0
-324 833 0
-324 321 0
325 -834 -702 0
-325 834 0
-325 702 0
326 -325 -23 0
-326 325 0
-326 23 0
327 -835 -324 0
-327 835 0
-327 324 0
328 -810 -830 0
-328 810 0
-328 830 0
329 -328 -47 0
-329 328 0
-329 47 0
330 -836 -327 0
-330 836 0
-330 327 0
331 -731 -14 0
-331 731 0
-331 14 0
332 -331 -754 0
-332 331 0
-332 754 0
333 -837 -330 0
-333 837 0
-333 330 0
334 -319 -801 0
-334 319 0
-334 801 0
335 -838 -333 0
-335 838 0
-335 333 0
336 -46 -725 0
-336 46 0
-336 725 0
337 -336 -726 0
-337 336 0
-337 726 0
338 -839 -335 0
-338 839 0
-338 335 0
339 -731 -9 0
-339 731 0
-339 9 0
340 -339 -715 0
-340 339 0
-340 715 0
341 -840 -338 0
-341 840 0
-341 338 0
342 -841 -7 0
-342 841 0
-342 7 0
343 -342 -736 0
-343 342 0
-343 736 0
344 -842 -341 0
-344 842 0
-344 341 0
345 -38 -2 0
-345 38 0
-345 2 0
346 -345 -736 0
-346 345 0
-346 736 0
347 -843 -344 0
-347 843 0
-347 344 0
348 -46 -703 0
-348 46 0
-348 703 0
349 -348 -48 0
-349 348 0
-349 48 0
350 -844 -347 0
-350 844 0
-350 347 0
351 -775 -28 0
-351 775 0
-351 28 0
352 -351 -776 0
-352 351 0
-352 776 0
353 -845 -350 0
-353 845 0
-353 350 0
354 -841 -790 0
-354 841 0
-354 790 0
355 -354 -41 0
-355 354 0
-355 41 0
356 -846 -353 0
-356 846 0
-356 353 0
357 -828 -847 0
-357 828 0
-357 847 0
358 -357 -792 0
-358 357 0
-358 792 0
359 -848 -356 0
-359 848 0
-359 356 0
360 -847 -810 0
-360 847 0
-360 810 0
361 -360 -13 0
-361 360 0
-361 13 0
362 -849 -359 0
-362 849 0
-362 359 0
363 -790 -36 0
-363 790 0
-363 36 0
364 -363 -31 0
-364 363 0
-364 31 0
365 -850 -362 0
-365 850 0
-365 362 0
366 -713 -4 0
-366 713 0
-366 4 0
367 -366 -18 0
-367 366 0
-367 18 0
368 -851 -365 0
-368 851 0
-368 365 0
369 -40 -760 0
-369 40 0
-369 760 0
370 -369 -41 0
-370 369 0
-370 41 0
371 -852 -368 0
-371 852 0
-371 368 0
372 -27 -702 0
-372 27 0
-372 702 0
373 -372 -813 0
-373 372 0
-373 813 0
374 -853 -371 0
-374 853 0
-374 371 0
375 -763 -3 0
-375 763 0
-375 3 0
376 -375 -33 0
-376 375 0
-376 33 0
377 -854 -374 0
-377 854 0
-377 374 0
378 -775 -711 0
-378 775 0
-378 711 0
379 -378 -47 0
-379 378 0
-379 47 0
380 -855 -377 0
-380 855 0
-380 377 0
381 -50 -790 0
-381 50 0
-381 790 0
382 -381 -762 0
-382 381 0
-382 762 0
383 -856 -380 0
-383 856 0
-383 380 0
384 -762 -731 0
-384 762 0
-384 731 0
385 -384 -12 0
-385 384 0
-385 12 0
386 -857 -383 0
-386 857 0
-386 383 0
387 -35 -744 0
-387 35 0
-387 744 0
388 -387 -795 0
-388 387 0
-388 795 0
389 -858 -386 0
-389 858 0
-389 386 0
390 -719 -7 0
-390 719 0
-390 7 0
391 -390 -740 0
-391 390 0
-391 740 0
392 -859 -389 0
-392 859 0
-392 389 0
393 -49 -860 0
-393 49 0
-393 860 0
394 -393 -3 0
-394 393 0
-394 3 0
395 -861 -392 0
-395 861 0
-395 392 0
396 -34 -711 0
-396 34 0
-396 711 0
397 -396 -723 0
-397 396 0
-397 723 0
398 -862 -395 0
-398 862 0
-398 395 0
399 -723 -13 0
-399 723 0
-399 13 0
400 -399 -813 0
-400 399 0
-400 813 0
401 -863 -398 0
-401 863 0
-401 398 0
402 -728 -3 0
-402 728 0
-402 3 0
403 -402 -28 0
-403 402 0
-403 28 0
404 -864 -401 0
-404 864 0
-404 401 0
405 -713 -2 0
-405 713 0
-405 2 0
406 -405 -26 0
-406 405 0
-406 26 0
407 -865 -404 0
-407 865 0
-407 404 0
408 -760 -726 0
-408 760 0
-408 726 0
409 -408 -776 0
-409 408 0
-409 776 0
410 -866 -407 0
-410 866 0
-410 407 0
411 -15 -2 0
-411 15 0
-411 2 0
412 -411 -47 0
-412 411 0
-412 47 0
413 -867 -410 0
-413 867 0
-413 410 0
414 -28 -717 0
-414 28 0
-414 717 0
415 -414 -47 0
-415 414 0
-415 47 0
416 -868 -413 0
-416 868 0
-416 413 0
417 -27 -744 0
-417 27 0
-417 744 0
418 -417 -751 0
-418 417 0
-418 751 0
419 -869 -416 0
-419 869 0
-419 416 0
420 -754 -728 0
-420 754 0
-420 728 0
421 -420 -26 0
-421 420 0
-421 26 0
422 -870 -419 0
-422 870 0
-422 419 0
423 -44 -30 0
-423 44 0
-423 30 0
424 -423 -754 0
-424 423 0
-424 754 0
425 -871 -422 0
-425 871 0
-425 422 0
426 -29 -8 0
-426 29 0
-426 8 0
427 -426 -813 0
-427 426 0
-427 813 0
428 -872 -425 0
-428 872 0
-428 425 0
429 -762 -39 0
-429 762 0
-429 39 0
430 -429 -21 0
-430 429 0
-430 21 0
431 -873 -428 0
-431 873 0
-431 428 0
432 -775 -728 0
-432 775 0
-432 728 0
433 -432 -713 0
-433 432 0
-433 713 0
434 -874 -431 0
-434 874 0
-434 431 0
435 -812 -784 0
-435 812 0
-435 784 0
436 -435 -723 0
-436 435 0
-436 723 0
437 -875 -434 0
-437 875 0
-437 434 0
438 -740 -4 0
-438 740 0
-438 4 0
439 -438 -709 0
-439 438 0
-439 709 0
440 -876 -437 0
-440 876 0
-440 437 0
441 -34 -31 0
-441 34 0
-441 31 0
442 -441 -47 0
-442 441 0
-442 47 0
443 -877 -440 0
-443 877 0
-443 440 0
444 -780 -20 0
-444 780 0
-444 20 0
445 -444 -24 0
-445 444 0
-445 24 0
446 -878 -443 0
-446 878 0
-446 443 0
447 -733 -711 0
-447 733 0
-447 711 0
448 -447 -3 0
-448 447 0
-448 3 0
449 -879 -446 0
-449 879 0
-449 446 0
450 -20 -713 0
-450 20 0
-450 713 0
451 -450 -709 0
-451 450 0
-451 709 0
452 -880 -449 0
-452 880 0
-452 449 0
453 -740 -20 0
-453 740 0
-453 20 0
454 -453 -723 0
-454 453 0
-454 723 0
455 -881 -452 0
-455 881 0
-455 452 0
456 -775 -830 0
-456 775 0
-456 830 0
457 -456 -722 0
-457 456 0
-457 722 0
458 -882 -455 0
-458 882 0
-458 455 0
459 -40 -1 0
-459 40 0
-459 1 0
460 -459 -30 0
-460 459 0
-460 30 0
461 -883 -458 0
-461 883 0
-461 458 0
462 -37 -2 0
-462 37 0
-462 2 0
463 -462 -780 0
-463 462 0
-463 780 0
464 -884 -461 0
-464 884 0
-464 461 0
465 -847 -784 0
-465 847 0
-465 784 0
466 -465 -36 0
-466 465 0
-466 36 0
467 -885 -464 0
-467 885 0
-467 464 0
468 -17 -7 0
-468 17 0
-468 7 0
469 -468 -709 0
-469 468 0
-469 709 0
470 -886 -467 0
-470 886 0
-470 467 0
471 -847 -25 0
-471 847 0
-471 25 0
472 -471 -717 0
-472 471 0
-472 717 0
473 -887 -470 0
-473 887 0
-473 470 0
474 -146 -763 0
-474 146 0
-474 763 0
475 -888 -473 0
-475 888 0
-475 473 0
476 -36 -780 0
-476 36 0
-476 780 0
477 -476 -760 0
-477 476 0
-477 760 0
478 -889 -475 0
-478 889 0
-478 475 0
479 -715 -9 0
-479 715 0
-479 9 0
480 -479 -26 0
-480 479 0
-480 26 0
481 -890 -478 0
-481 890 0
-481 478 0
482 -304 -810 0
-482 304 0
-482 810 0
483 -891 -481 0
-483 891 0
-483 481 0
484 -828 -17 0
-484 828 0
-484 17 0
485 -484 -736 0
-485 484 0
-485 736 0
486 -892 -483 0
-486 892 0
-486 483 0
487 -50 -711 0
-487 50 0
-487 711 0
488 -487 -813 0
-488 487 0
-488 813 0
489 -893 -486 0
-489 893 0
-489 486 0
490 -45 -40 0
-490 45 0
-490 40 0
491 -490 -715 0
-491 490 0
-491 715 0
492 -894 -489 0
-492 894 0
-492 489 0
493 -834 -4 0
-493 834 0
-493 4 0
494 -493 -17 0
-494 493 0
-494 17 0
495 -895 -492 0
-495 895 0
-495 492 0
496 -828 -733 0
-496 828 0
-496 733 0
497 -496 -45 0
-497 496 0
-497 45 0
498 -896 -495 0
-498 896 0
-498 495 0
499 -4 -784 0
-499 4 0
-499 784 0
500 -499 -19 0
-500 499 0
-500 19 0
501 -897 -498 0
-501 897 0
-501 498 0
502 -46 -4 0
-502 46 0
-502 4 0
503 -502 -715 0
-503 502 0
-503 715 0
504 -898 -501 0
-504 898 0
-504 501 0
505 -48 -722 0
-505 48 0
-505 722 0
506 -505 -9 0
-506 505 0
-506 9 0
507 -899 -504 0
-507 899 0
-507 504 0
508 -725 -735 0
-508 725 0
-508 735 0
509 -508 -780 0
-509 508 0
-509 780 0
510 -900 -507 0
-510 900 0
-510 507 0
511 -29 -22 0
-511 29 0
-511 22 0
512 -511 -719 0
-512 511 0
-512 719 0
513 -901 -510 0
-513 901 0
-513 510 0
514 -33 -720 0
-514 33 0
-514 720 0
515 -514 -26 0
-515 514 0
-515 26 0
516 -902 -513 0
-516 902 0
-516 513 0
517 -29 -699 0
-517 29 0
-517 699 0
518 -517 -738 0
-518 517 0
-518 738 0
519 -903 -516 0
-519 903 0
-519 516 0
520 -810 -801 0
-520 810 0
-520 801 0
521 -520 -18 0
-521 520 0
-521 18 0
522 -904 -519 0
-522 904 0
-522 519 0
523 -762 -15 0
-523 762 0
-523 15 0
524 -523 -713 0
-524 523 0
-524 713 0
525 -905 -522 0
-525 905 0
-525 522 0
526 -760 -719 0
-526 760 0
-526 719 0
527 -526 -736 0
-527 526 0
-527 736 0
528 -906 -525 0
-528 906 0
-528 525 0
529 -29 -744 0
-529 29 0
-529 744 0
530 -529 -47 0
-530 529 0
-530 47 0
531 -907 -528 0
-531 907 0
-531 528 0
532 -725 -703 0
-532 725 0
-532 703 0
533 -532 -738 0
-533 532 0
-533 738 0
534 -908 -531 0
-534 908 0
-534 531 0
535 -45 -16 0
-535 45 0
-535 16 0
536 -535 -42 0
-536 535 0
-536 42 0
537 -909 -534 0
-537 909 0
-537 534 0
538 -40 -2 0
-538 40 0
-538 2 0
539 -538 -31 0
-539 538 0
-539 31 0
540 -910 -537 0
-540 910 0
-540 537 0
541 -43 -11 0
-541 43 0
-541 11 0
542 -541 -44 0
-542 541 0
-542 44 0
543 -911 -540 0
-543 911 0
-543 540 0
544 -801 -736 0
-544 801 0
-544 736 0
545 -544 -738 0
-545 544 0
-545 738 0
546 -912 -543 0
-546 912 0
-546 543 0
547 -5 -697 0
-547 5 0
-547 697 0
548 -547 -6 0
-548 547 0
-548 6 0
549 -913 -546 0
-549 913 0
-549 546 0
550 -32 -725 0
-550 32 0
-550 725 0
551 -550 -31 0
-551 550 0
-551 31 0
552 -914 -549 0
-552 914 0
-552 549 0
553 -775 -735 0
-553 775 0
-553 735 0
554 -553 -15 0
-554 553 0
-554 15 0
555 -915 -552 0
-555 915 0
-555 552 0
556 -47 -754 0
-556 47 0
-556 754 0
557 -556 -715 0
-557 556 0
-557 715 0
558 -916 -555 0
-558 916 0
-558 555 0
559 -38 -790 0
-559 38 0
-559 790 0
560 -559 -13 0
-560 559 0
-560 13 0
561 -917 -558 0
-561 917 0
-561 558 0
562 -14 -698 0
-562 14 0
-562 698 0
563 -562 -22 0
-563 562 0
-563 22 0
564 -918 -561 0
-564 918 0
-564 561 0
565 -49 -751 0
-565 49 0
-565 751 0
566 -565 -715 0
-566 565 0
-566 715 0
567 -919 -564 0
-567 919 0
-567 564 0
568 -39 -37 0
-568 39 0
-568 37 0
569 -568 -698 0
-569 568 0
-569 698 0
570 -920 -567 0
-570 920 0
-570 567 0
571 -828 -921 0
-571 828 0
-571 921 0
572 -571 -21 0
-572 571 0
-572 21 0
573 -922 -570 0
-573 922 0
-573 570 0
574 -744 -2 0
-574 744 0
-574 2 0
575 -574 -30 0
-575 574 0
-575 30 0
576 -923 -573 0
-576 923 0
-576 573 0
577 -801 -711 0
-577 801 0
-577 711 0
578 -577 -17 0
-578 577 0
-578 17 0
579 -924 -576 0
-579 924 0
-579 576 0
580 -828 -841 0
-580 828 0
-580 841 0
581 -580 -740 0
-581 580 0
-581 740 0
582 -925 -579 0
-582 925 0
-582 579 0
583 -14 -2 0
-583 14 0
-583 2 0
584 -583 -35 0
-584 583 0
-584 35 0
585 -926 -582 0
-585 926 0
-585 582 0
586 -32 -706 0
-586 32 0
-586 706 0
587 -586 -726 0
-587 586 0
-587 726 0
588 -927 -585 0
-588 927 0
-588 585 0
589 -48 -744 0
-589 48 0
-589 744 0
590 -589 -30 0
-590 589 0
-590 30 0
591 -928 -588 0
-591 928 0
-591 588 0
592 -36 -801 0
-592 36 0
-592 801 0
593 -592 -723 0
-593 592 0
-593 723 0
594 -929 -591 0
-594 929 0
-594 591 0
595 -847 -9 0
-595 847 0
-595 9 0
596 -595 -736 0
-596 595 0
-596 736 0
597 -930 -594 0
-597 930 0
-597 594 0
598 -29 -717 0
-598 29 0
-598 717 0
599 -598 -12 0
-599 598 0
-599 12 0
600 -931 -597 0
-600 931 0
-600 597 0
601 -46 -11 0
-601 46 0
-601 11 0
602 -601 -760 0
-602 601 0
-602 760 0
603 -932 -600 0
-603 932 0
-603 600 0
604 -792 -711 0
-604 792 0
-604 711 0
605 -604 -810 0
-605 604 0
-605 810 0
606 -933 -603 0
-606 933 0
-606 603 0
607 -15 -14 0
-607 15 0
-607 14 0
608 -607 -25 0
-608 607 0
-608 25 0
609 -934 -606 0
-609 934 0
-609 606 0
610 -44 -740 0
-610 44 0
-610 740 0
611 -610 -720 0
-611 610 0
-611 720 0
612 -935 -609 0
-612 935 0
-612 609 0
613 -366 -21 0
-613 366 0
-613 21 0
614 -936 -612 0
-614 936 0
-614 612 0
615 -426 -17 0
-615 426 0
-615 17 0
616 -937 -614 0
-616 937 0
-616 614 0
617 -812 -834 0
-617 812 0
-617 834 0
618 -617 -736 0
-618 617 0
-618 736 0
619 -938 -616 0
-619 938 0
-619 616 0
620 -35 -711 0
-620 35 0
-620 711 0
621 -620 -21 0
-621 620 0
-621 21 0
622 -939 -619 0
-622 939 0
-622 619 0
623 -48 -17 0
-623 48 0
-623 17 0
624 -623 -723 0
-624 623 0
-624 723 0
625 -940 -622 0
-625 940 0
-625 622 0
626 -725 -8 0
-626 725 0
-626 8 0
627 -626 -19 0
-627 626 0
-627 19 0
628 -941 -625 0
-628 941 0
-628 625 0
629 -751 -738 0
-629 751 0
-629 738 0
630 -629 -13 0
-630 629 0
-630 13 0
631 -942 -628 0
-631 942 0
-631 628 0
632 -9 -3 0
-632 9 0
-632 3 0
633 -632 -795 0
-633 632 0
-633 795 0
634 -943 -631 0
-634 943 0
-634 631 0
635 -812 -40 0
-635 812 0
-635 40 0
636 -635 -717 0
-636 635 0
-636 717 0
637 -944 -634 0
-637 944 0
-637 634 0
638 -8 -7 0
-638 8 0
-638 7 0
639 -638 -11 0
-639 638 0
-639 11 0
640 -945 -637 0
-640 945 0
-640 637 0
641 -21 -707 0
-641 21 0
-641 707 0
642 -641 -709 0
-642 641 0
-642 709 0
643 -946 -640 0
-643 946 0
-643 640 0
644 -274 -18 0
-644 274 0
-644 18 0
645 -947 -643 0
-645 947 0
-645 643 0
646 -726 -717 0
-646 726 0
-646 717 0
647 -646 -736 0
-647 646 0
-647 736 0
648 -948 -645 0
-648 948 0
-648 645 0
649 -48 -37 0
-649 48 0
-649 37 0
650 -649 -780 0
-650 649 0
-650 780 0
651 -949 -648 0
-651 949 0
-651 648 0
652 -39 -699 0
-652 39 0
-652 699 0
653 -652 -921 0
-653 652 0
-653 921 0
654 -950 -651 0
-654 950 0
-654 651 0
655 -43 -14 0
-655 43 0
-655 14 0
656 -655 -719 0
-656 655 0
-656 719 0
657 -951 -654 0
-657 951 0
-657 654 0
658 -699 -698 0
-658 699 0
-658 698 0
659 -658 -19 0
-659 658 0
-659 19 0
660 -952 -657 0
-660 952 0
-660 657 0
661 -733 -702 0
-661 733 0
-661 702 0
662 -661 -46 0
-662 661 0
-662 46 0
663 -953 -660 0
-663 953 0
-663 660 0
664 -32 -24 0
-664 32 0
-664 24 0
665 -664 -715 0
-665 664 0
-665 715 0
666 -954 -663 0
-666 954 0
-666 663 0
667 -28 -22 0
-667 28 0
-667 22 0
668 -667 -810 0
-668 667 0
-668 810 0
669 -955 -666 0
-669 955 0
-669 666 0
670 -860 -43 0
-670 860 0
-670 43 0
671 -670 -23 0
-671 670 0
-671 23 0
672 -956 -669 0
-672 956 0
-672 669 0
673 -48 -847 0
-673 48 0
-673 847 0
674 -673 -717 0
-674 673 0
-674 717 0
675 -957 -672 0
-675 957 0
-675 672 0
676 -725 -11 0
-676 725 0
-676 11 0
677 -676 -13 0
-677 676 0
-677 13 0
678 -958 -675 0
-678 958 0
-678 675 0
679 -36 -33 0
-679 36 0
-679 33 0
680 -679 -776 0
-680 679 0
-680 776 0
681 -959 -678 0
-681 959 0
-681 678 0
682 -812 -7 0
-682 812 0
-682 7 0
683 -682 -47 0
-683 682 0
-683 47 0
684 -960 -681 0
-684 960 0
-684 681 0
685 -16 -702 0
-685 16 0
-685 702 0
686 -685 -41 0
-686 685 0
-686 41 0
687 -961 -684 0
-687 961 0
-687 684 0
688 -775 -733 0
-688 775 0
-688 733 0
689 -688 -921 0
-689 688 0
-689 921 0
690 -962 -687 0
-690 962 0
-690 687 0
691 -16 -7 0
-691 16 0
-691 7 0
692 -691 -20 0
-692 691 0
-692 20 0
693 -963 -690 0
-693 963 0
-693 690 0
694 -722 -717 0
-694 722 0
-694 717 0
695 -694 -780 0
-695 694 0
-695 780 0
696 -964 -693 0
-696 964 0
-696 693 0
-697 -1 0
697 1 0
-698 -5 0
698 5 0
-699 -6 0
699 6 0
-700 -54 0
700 54 0
-701 -52 0
701 52 0
-702 -8 0
702 8 0
-703 -7 0
703 7 0
-704 -57 0
704 57 0
-705 -10 0
705 10 0
-706 -3 0
706 3 0
-707 -11 0
707 11 0
-708 -60 0
708 60 0
-709 -13 0
709 13 0
-710 -63 0
710 63 0
-711 -15 0
711 15 0
-712 -66 0
712 66 0
-713 -17 0
713 17 0
-714 -69 0
714 69 0
-715 -18 0
715 18 0
-716 -72 0
716 72 0
-717 -20 0
717 20 0
-718 -75 0
718 75 0
-719 -23 0
719 23 0
-720 -24 0
720 24 0
-721 -78 0
721 78 0
-722 -25 0
722 25 0
-723 -26 0
723 26 0
-724 -81 0
724 81 0
-725 -27 0
725 27 0
-726 -28 0
726 28 0
-727 -84 0
727 84 0
-728 -29 0
728 29 0
-729 -87 0
729 87 0
-730 -90 0
730 90 0
-731 -31 0
731 31 0
-732 -93 0
732 93 0
-733 -32 0
733 32 0
-734 -96 0
734 96 0
-735 -4 0
735 4 0
-736 -21 0
736 21 0
-737 -99 0
737 99 0
-738 -12 0
738 12 0
-739 -102 0
739 102 0
-740 -35 0
740 35 0
-741 -105 0
741 105 0
-742 -108 0
742 108 0
-743 -111 0
743 111 0
-744 -16 0
744 16 0
-745 -114 0
745 114 0
-746 -117 0
746 117 0
-747 -120 0
747 120 0
-748 -123 0
748 123 0
-749 -126 0
749 126 0
-750 -129 0
750 129 0
-751 -22 0
751 22 0
-752 -132 0
752 132 0
-753 -135 0
753 135 0
-754 -42 0
754 42 0
-755 -138 0
755 138 0
-756 -141 0
756 141 0
-757 -144 0
757 144 0
-758 -147 0
758 147 0
-759 -150 0
759 150 0
-760 -33 0
760 33 0
-761 -153 0
761 153 0
-762 -40 0
762 40 0
-763 -19 0
763 19 0
-764 -156 0
764 156 0
-765 -159 0
765 159 0
-766 -162 0
766 162 0
-767 -165 0
767 165 0
-768 -168 0
768 168 0
-769 -171 0
769 171 0
-770 -174 0
770 174 0
-771 -177 0
771 177 0
-772 -180 0
772 180 0
-773 -183 0
773 183 0
-774 -186 0
774 186 0
-775 -46 0
775 46 0
-776 -44 0
776 44 0
-777 -189 0
777 189 0
-778 -192 0
778 192 0
-779 -195 0
779 195 0
-780 -30 0
780 30 0
-781 -198 0
781 198 0
-782 -201 0
782 201 0
-783 -204 0
783 204 0
-784 -2 0
784 2 0
-785 -207 0
785 207 0
-786 -210 0
786 210 0
-787 -213 0
787 213 0
-788 -216 0
788 216 0
-789 -219 0
789 219 0
-790 -37 0
790 37 0
-791 -222 0
791 222 0
-792 -49 0
792 49 0
-793 -225 0
793 225 0
-794 -228 0
794 228 0
-795 -47 0
795 47 0
-796 -231 0
796 231 0
-797 -234 0
797 234 0
-798 -237 0
798 237 0
-799 -239 0
799 239 0
-800 -242 0
800 242 0
-801 -34 0
801 34 0
-802 -245 0
802 245 0
-803 -248 0
803 248 0
-804 -251 0
804 251 0
-805 -254 0
805 254 0
-806 -257 0
806 257 0
-807 -260 0
807 260 0
-808 -263 0
808 263 0
-809 -266 0
809 266 0
-810 -36 0
810 36 0
-811 -269 0
811 269 0
-812 -43 0
812 43 0
-813 -41 0
813 41 0
-814 -272 0
814 272 0
-815 -275 0
815 275 0
-816 -278 0
816 278 0
-817 -281 0
817 281 0
-818 -284 0
818 284 0
-819 -287 0
819 287 0
-820 -290 0
820 290 0
-821 -293 0
821 293 0
-822 -296 0
822 296 0
-823 -299 0
823 299 0
-824 -302 0
824 302 0
-825 -305 0
825 305 0
-826 -308 0
826 308 0
-827 -311 0
827 311 0
-828 -50 0
828 50 0
-829 -314 0
829 314 0
-830 -14 0
830 14 0
-831 -317 0
831 317 0
-832 -320 0
832 320 0
-833 -323 0
833 323 0
-834 -38 0
834 38 0
-835 -326 0
835 326 0
-836 -329 0
836 329 0
-837 -332 0
837 332 0
-838 -334 0
838 334 0
-839 -337 0
839 337 0
-840 -340 0
840 340 0
-841 -48 0
841 48 0
-842 -343 0
842 343 0
-843 -346 0
843 346 0
-844 -349 0
844 349 0
-845 -352 0
845 352 0
-846 -355 0
846 355 0
-847 -39 0
847 39 0
-848 -358 0
848 358 0
-849 -361 0
849 361 0
-850 -364 0
850 364 0
-851 -367 0
851 367 0
-852 -370 0
852 370 0
-853 -373 0
853 373 0
-854 -376 0
854 376 0
-855 -379 0
855 379 0
-856 -382 0
856 382 0
-857 -385 0
857 385 0
-858 -388 0
858 388 0
-859 -391 0
859 391 0
-860 -45 0
860 45 0
-861 -394 0
861 394 0
-862 -397 0
862 397 0
-863 -400 0
863 400 0
-864 -403 0
864 403 0
-865 -406 0
865 406 0
-866 -409 0
866 409 0
-867 -412 0
867 412 0
-868 -415 0
868 415 0
-869 -418 0
869 418 0
-870 -421 0
870 421 0
-871 -424 0
871 424 0
-872 -427 0
872 427 0
-873 -430 0
873 430 0
-874 -433 0
874 433 0
-875 -436 0
875 436 0
-876 -439 0
876 439 0
-877 -442 0
877 442 0
-878 -445 0
878 445 0
-879 -448 0
879 448 0
-880 -451 0
880 451 0
-881 -454 0
881 454 0
-882 -457 0
882 457 0
-883 -460 0
883 460 0
-884 -463 0
884 463 0
-885 -466 0
885 466 0
-886 -469 0
886 469 0
-887 -472 0
887 472 0
-888 -474 0
888 474 0
-889 -477 0
889 477 0
-890 -480 0
890 480 0
-891 -482 0
891 482 0
-892 -485 0
892 485 0
-893 -488 0
893 488 0
-894 -491 0
894 491 0
-895 -494 0
895 494 0
-896 -497 0
896 497 0
-897 -500 0
897 500 0
-898 -503 0
898 503 0
-899 -506 0
899 506 0
-900 -509 0
900 509 0
-901 -512 0
901 512 0
-902 -515 0
902 515 0
-903 -518 0
903 518 0
-904 -521 0
904 521 0
-905 -524 0
905 524 0
-906 -527 0
906 527 0
-907 -530 0
907 530 0
-908 -533 0
908 533 0
-909 -536 0
909 536 0
-910 -539 0
910 539 0
-911 -542 0
911 542 0
-912 -545 0
912 545 0
-913 -548 0
913 548 0
-914 -551 0
914 551 0
-915 -554 0
915 554 0
-916 -557 0
916 557 0
-917 -560 0
917 560 0
-918 -563 0
918 563 0
-919 -566 0
919 566 0
-920 -569 0
920 569 0
-921 -9 0
921 9 0
-922 -572 0
922 572 0
-923 -575 0
923 575 0
-924 -578 0
924 578 0
-925 -581 0
925 581 0
-926 -584 0
926 584 0
-927 -587 0
927 587 0
-928 -590 0
928 590 0
-929 -593 0
929 593 0
-930 -596 0
930 596 0
-931 -599 0
931 599 0
-932 -602 0
932 602 0
-933 -605 0
933 605 0
-934 -608 0
934 608 0
-935 -611 0
935 611 0
-936 -613 0
936 613 0
-937 -615 0
937 615 0
-938 -618 0
938 618 0
-939 -621 0
939 621 0
-940 -624 0
940 624 0
-941 -627 0
941 627 0
-942 -630 0
942 630 0
-943 -633 0
943 633 0
-944 -636 0
944 636 0
-945 -639 0
945 639 0
-946 -642 0
946 642 0
-947 -644 0
947 644 0
-948 -647 0
948 647 0
-949 -650 0
949 650 0
-950 -653 0
950 653 0
-951 -656 0
951 656 0
-952 -659 0
952 659 0
-953 -662 0
953 662 0
-954 -665 0
954 665 0
-955 -668 0
955 668 0
-956 -671 0
956 671 0
-957 -674 0
957 674 0
-958 -677 0
958 677 0
-959 -680 0
959 680 0
-960 -683 0
960 683 0
-961 -686 0
961 686 0
-962 -689 0
962 689 0
-963 -692 0
963 692 0
-964 -695 0
964 695 0
696 0
